NAME : amz0416.124349_118349.tour
COMMENT : Cost = 124349_118349
COMMENT : Found by LKH-AMZ [Keld Helsgaun] Sun May 11 12:29:07 2025
COMMENT : TW viol.: 0 #: 0
TYPE : TOUR
DIMENSION : 165
TOUR_SECTION
97
36
145
39
69
135
28
65
119
143
38
142
123
70
23
22
138
55
29
27
6
127
132
155
18
49
19
92
115
17
33
98
25
48
41
165
110
26
43
147
63
50
141
15
113
96
130
134
137
53
44
30
157
11
164
162
67
76
107
109
31
9
140
128
149
106
94
125
56
144
120
87
54
52
158
80
4
68
93
16
7
163
84
148
105
1
160
86
75
101
2
78
133
24
13
114
64
57
112
116
151
102
118
108
139
73
150
40
161
156
51
159
90
89
146
61
3
77
122
95
103
71
152
58
20
5
21
129
45
88
117
111
34
99
37
100
12
32
46
154
131
59
82
79
153
91
62
47
10
126
8
42
124
66
81
83
60
121
104
35
85
72
14
74
136
-1
EOF
